language ESSENCE' 1.0
letting lastdx=92
letting cage be [
[15,8,1,9,1,0,0, 0,0, 0,0],
[23,11,3,11,4,12,4,13,4,0,0],
[11,6,9,6,10,5,10,0,0, 0,0],
[12,13,3,0,0, 0,0, 0,0, 0,0],
[5,6,2,0,0, 0,0, 0,0, 0,0],
[33,16,6,16,7,16,8,16,9,0,0],
[37,10,16,9,16,8,16,0,0, 0,0],
[14,9,2,0,0, 0,0, 0,0, 0,0],
[8,3,2,0,0, 0,0, 0,0, 0,0],
[30,11,6,11,7,10,7,0,0, 0,0],
[14,4,13,0,0, 0,0, 0,0, 0,0],
[36,16,10,16,11,15,11,15,12,14,12],
[7,16,15,15,15,0,0, 0,0, 0,0],
[18,2,11,3,11,0,0, 0,0, 0,0],
[11,14,2,0,0, 0,0, 0,0, 0,0],
[26,10,1,10,2,10,3,0,0, 0,0],
[16,3,15,0,0, 0,0, 0,0, 0,0],
[34,15,16,16,16,14,16,14,15,0,0],
[29,5,16,6,16,7,16,0,0, 0,0],
[36,15,14,14,14,14,13,15,13,0,0],
[42,13,7,13,8,12,8,12,9,0,0],
[27,12,6,12,7,13,6,14,6,0,0],
[16,12,10,0,0, 0,0, 0,0, 0,0],
[2,12,16,0,0, 0,0, 0,0, 0,0],
[4,15,6,0,0, 0,0, 0,0, 0,0],
[16,4,6,0,0, 0,0, 0,0, 0,0],
[31,7,12,7,11,6,11,6,12,0,0],
[24,8,12,9,12,10,12,0,0, 0,0],
[7,3,6,0,0, 0,0, 0,0, 0,0],
[23,16,5,15,5,15,4,0,0, 0,0],
[13,2,10,0,0, 0,0, 0,0, 0,0],
[11,12,3,0,0, 0,0, 0,0, 0,0],
[32,14,4,14,5,13,5,0,0, 0,0],
[11,6,14,6,13,0,0, 0,0, 0,0],
[27,13,12,13,13,0,0, 0,0, 0,0],
[36,13,11,12,11,12,12,12,13,11,13],
[46,10,10,10,11,11,11,11,12,0,0],
[54,5,6,6,6,6,5,6,4,0,0],
[35,7,13,8,13,9,13,10,13,10,14],
[32,1,12,1,13,1,14,0,0, 0,0],
[45,7,10,7,9,8,10,9,10,0,0],
[10,3,8,4,8,4,7,0,0, 0,0],
[5,7,5,7,4,0,0, 0,0, 0,0],
[44,9,14,8,14,7,14,7,15,0,0],
[15,9,11,8,11,0,0, 0,0, 0,0],
[18,7,7,8,7,0,0, 0,0, 0,0],
[15,2,16,0,0, 0,0, 0,0, 0,0],
[21,12,15,11,15,11,16,0,0, 0,0],
[53,15,2,16,2,16,3,16,4,0,0],
[9,8,4,0,0, 0,0, 0,0, 0,0],
[26,1,16,1,15,2,15,2,14,0,0],
[9,4,3,0,0, 0,0, 0,0, 0,0],
[20,4,12,3,12,3,13,3,14,0,0],
[9,15,1,16,1,0,0, 0,0, 0,0],
[30,13,15,13,16,13,14,12,14,11,14],
[19,2,8,2,7,3,7,0,0, 0,0],
[56,3,1,4,1,4,2,5,2,5,1],
[31,13,9,14,9,15,9,0,0, 0,0],
[47,5,13,5,12,5,11,4,11,4,10],
[40,14,8,15,8,15,7,14,7,0,0],
[36,11,1,11,2,12,2,13,2,0,0],
[11,10,15,0,0, 0,0, 0,0, 0,0],
[30,13,10,14,10,14,11,15,10,0,0],
[6,9,7,0,0, 0,0, 0,0, 0,0],
[20,8,2,8,3,7,3,7,2,0,0],
[8,6,7,0,0, 0,0, 0,0, 0,0],
[35,1,1,1,2,2,2,2,1,0,0],
[20,14,3,15,3,0,0, 0,0, 0,0],
[7,4,16,3,16,0,0, 0,0, 0,0],
[2,9,3,0,0, 0,0, 0,0, 0,0],
[46,3,3,2,3,2,4,1,4,1,3],
[23,1,7,1,6,0,0, 0,0, 0,0],
[24,9,15,8,15,0,0, 0,0, 0,0],
[31,1,5,2,5,2,6,0,0, 0,0],
[15,1,8,0,0, 0,0, 0,0, 0,0],
[14,1,9,0,0, 0,0, 0,0, 0,0],
[7,1,10,1,11,0,0, 0,0, 0,0],
[3,2,9,0,0, 0,0, 0,0, 0,0],
[15,2,12,2,13,0,0, 0,0, 0,0],
[29,3,9,3,10,4,9,5,9,0,0],
[20,4,4,5,4,5,5,0,0, 0,0],
[11,5,3,6,3,0,0, 0,0, 0,0],
[12,5,7,0,0, 0,0, 0,0, 0,0],
[23,5,8,6,8,0,0, 0,0, 0,0],
[26,6,1,7,1,0,0, 0,0, 0,0],
[6,7,6,0,0, 0,0, 0,0, 0,0],
[44,8,5,9,5,10,5,10,4,9,4],
[23,8,6,9,6,10,6,0,0, 0,0],
[6,9,8,10,8,0,0, 0,0, 0,0],
[31,10,9,11,9,11,8,11,10,0,0],
[15,11,5,12,5,0,0, 0,0, 0,0],
[11,12,1,13,1,14,1,0,0, 0,0],
[37,16,12,16,13,16,14,0,0, 0,0]
]
